30	100	100	100
78	12	72
66	22	81
75	35	73
92	43	85
67	36	98
72	19	73
87	28	66
83	22	86
77	14	78
84	15	86
90	29	95
70	49	97
82	14	81
99	49	74
79	48	71
81	20	66
99	15	96
84	12	89
89	40	94
86	13	86
92	16	74
86	38	85
70	32	72
94	22	80
86	20	69
89	40	94
82	31	67
95	34	93
94	40	97
78	35	98
